results_rootrelaxation/bin018_050_005.srr.sol
solution status: optimal solution found
objective value:                                    0
_var30_                             0.237495700748869 	(obj:0)
_var1108_                           0.285693524332027 	(obj:0)
_var2688_                           0.212698045938967 	(obj:0)
_var2692_                           0.045430808300408 	(obj:0)
_var2735_                           0.240236360167335 	(obj:0)
_var2741_                           0.141647711278779 	(obj:0)
_var2742_                           0.261594097836395 	(obj:0)
_var2744_                           0.106257727146515 	(obj:0)
_var2745_                           0.175275507822817 	(obj:0)
_var2747_                           0.157951465375426 	(obj:0)
_var2751_                           0.220426173869018 	(obj:0)
_var2754_                            0.42513000103166 	(obj:0)
_var2757_                           0.301387533637517 	(obj:0)
_var2758_                           0.270646528228242 	(obj:0)
_var2768_                          0.0957480788322665 	(obj:0)
_var2769_                         0.000600675433576114 	(obj:0)
_var2772_                           0.223998502330173 	(obj:0)
_var2773_                          0.0529694989704019 	(obj:0)
_var2775_                           0.144346439183518 	(obj:0)
_var2776_                         0.00984246484049645 	(obj:0)
_var2778_                          0.0552422374263505 	(obj:0)
_var2784_                         0.00924788393579101 	(obj:0)
_var2786_                           0.107263057062705 	(obj:0)
_var2787_                             0.1919412704621 	(obj:0)
_var2792_                           0.162556923918693 	(obj:0)
_var2796_                           0.291100394988227 	(obj:0)
_var2813_                          0.0327223795179486 	(obj:0)
_var2814_                           0.301512492921879 	(obj:0)
_var2815_                           0.198441414507446 	(obj:0)
_var2816_                           0.331303906753592 	(obj:0)
_var2820_                            0.23989192667108 	(obj:0)
_var2821_                           0.317497169063286 	(obj:0)
_var2825_                          0.0335974049576559 	(obj:0)
_var2826_                          0.0367911521396295 	(obj:0)
_var2827_                           0.142973054078369 	(obj:0)
_var2828_                           0.116904639769831 	(obj:0)
_var2830_                           0.111622153037983 	(obj:0)
_var2832_                           0.287243288924731 	(obj:0)
_var2833_                           0.205179889501662 	(obj:0)
_var2834_                           0.113018688864275 	(obj:0)
_var2835_                           0.163744564827439 	(obj:0)
_var2838_                          0.0689898285322269 	(obj:0)
_var2839_                           0.225406162582583 	(obj:0)
_var2845_                          0.0388721216253216 	(obj:0)
_var2846_                           0.242733786854626 	(obj:0)
_var2847_                          0.0855054457071109 	(obj:0)
_var2848_                            0.25514304401337 	(obj:0)
_var2849_                          0.0747381937292261 	(obj:0)
_var2851_                           0.200745864762836 	(obj:0)
_var2852_                           0.177151847394959 	(obj:0)
_var2853_                            0.07178276755708 	(obj:0)
_var2855_                          0.0502837130228712 	(obj:0)
_var2856_                           0.188226778247153 	(obj:0)
_var2857_                          0.0740069209891103 	(obj:0)
_var2859_                           0.141738908620034 	(obj:0)
_var2861_                          0.0123020342114181 	(obj:0)
_var2863_                         0.00564416235479506 	(obj:0)
_var2866_                           0.132047108444741 	(obj:0)
_var2868_                          0.0775358574198639 	(obj:0)
_var2869_                          0.0149289258905646 	(obj:0)
_var2870_                          0.0274130338289559 	(obj:0)
_var2871_                           0.161199934127655 	(obj:0)
_var2874_                           0.158660629750984 	(obj:0)
_var2875_                          0.0560349885285063 	(obj:0)
_var2876_                           0.115375980811153 	(obj:0)
_var2877_                          0.0929814024331671 	(obj:0)
_var2878_                          0.0440901094207684 	(obj:0)
_var2879_                          0.0843594041095708 	(obj:0)
_var2880_                           0.159110656827536 	(obj:0)
_var2882_                           0.213662159579745 	(obj:0)
_var2885_                          0.0797189777748837 	(obj:0)
_var2886_                           0.140479857798846 	(obj:0)
_var2887_                          0.0734967256114538 	(obj:0)
_var2889_                          0.0491885458807297 	(obj:0)
_var2890_                          0.0923893717862278 	(obj:0)
_var2892_                           0.115747515855084 	(obj:0)
_var2895_                           0.153871055280582 	(obj:0)
_var2896_                           0.221939606037181 	(obj:0)
_var2897_                          0.0863888954555279 	(obj:0)
_var2899_                           0.043510166649729 	(obj:0)
_var2901_                          0.0976448536246249 	(obj:0)
_var2903_                          0.0160711805559237 	(obj:0)
_var2904_                           0.186377006452178 	(obj:0)
_var2906_                           0.196608995310332 	(obj:0)
_var2908_                           0.122734048149503 	(obj:0)
_var2909_                          0.0750410508233772 	(obj:0)
_var2913_                          0.0453011811980356 	(obj:0)
_var2914_                          0.0687625567081908 	(obj:0)
_var2918_                           0.203570972053036 	(obj:0)
_var2919_                           0.431629308763925 	(obj:0)
_var2920_                           0.228047563936081 	(obj:0)
_var2921_                           0.237384240349919 	(obj:0)
_var2922_                          0.0723276535895341 	(obj:0)
_var2924_                          0.0556887269436537 	(obj:0)
_var2925_                          0.0591388428597184 	(obj:0)
_var2926_                          0.0132839586752204 	(obj:0)
_var2928_                           0.134867683809172 	(obj:0)
_var2929_                          0.0231049459972812 	(obj:0)
_var2930_                         0.00383882655144738 	(obj:0)
_var2931_                           0.112849262565431 	(obj:0)
_var2932_                           0.165955208368802 	(obj:0)
_var2933_                          0.0537632555409958 	(obj:0)
_var2934_                          0.0200739745166607 	(obj:0)
_var2935_                          0.0158366403718575 	(obj:0)
_var2936_                          0.0300753006747643 	(obj:0)
_var2937_                           0.155311462594218 	(obj:0)
_var2939_                          0.0212026425411084 	(obj:0)
_var2943_                           0.252376435418783 	(obj:0)
_var2946_                           0.226704921891029 	(obj:0)
_var2951_                             0.0688044871699 	(obj:0)
_var2952_                          0.0528565440708063 	(obj:0)
_var2955_                          0.0409441503774164 	(obj:0)
_var2960_                           0.127829193630239 	(obj:0)
_var2961_                         0.00668175665692587 	(obj:0)
_var2964_                           0.256918322633374 	(obj:0)
_var2965_                          0.0656362047032473 	(obj:0)
_var2966_                           0.125153887797486 	(obj:0)
_var2967_                          0.0258325132226105 	(obj:0)
_var2969_                          0.0936071936244206 	(obj:0)
_var2971_                           0.027933606542156 	(obj:0)
_var2972_                          0.0271418957636705 	(obj:0)
_var2973_                           0.132005222681079 	(obj:0)
_var2974_                           0.107719817061055 	(obj:0)
_var2976_                          0.0616043450283797 	(obj:0)
_var2978_                          0.0735727110963894 	(obj:0)
_var2980_                          0.0612489342662285 	(obj:0)
_var2981_                           0.110542917974355 	(obj:0)
_var2982_                          0.0532565120810156 	(obj:0)
_var2983_                          0.0126650227596254 	(obj:0)
_var2984_                          0.0424982831344222 	(obj:0)
_var2987_                          0.0257701501102364 	(obj:0)
_var2988_                         0.00821466263435058 	(obj:0)
_var2990_                         0.00397384833767075 	(obj:0)
_var2991_                         0.00670477042966183 	(obj:0)
_var2993_                          0.0623610101432632 	(obj:0)
_var2995_                          0.0254536399832606 	(obj:0)
_var2996_                          0.0161621590088008 	(obj:0)
_var2997_                          0.0642683821774323 	(obj:0)
_var2999_                          0.0441179978767636 	(obj:0)
_var3001_                          0.0640780849372515 	(obj:0)
_var3002_                          0.0607000673318704 	(obj:0)
_var3004_                          0.0202125181117376 	(obj:0)
_var3005_                          0.0588684438896729 	(obj:0)
_var3007_                          0.0212986793882571 	(obj:0)
_var3008_                         0.00316390108591203 	(obj:0)
_var3009_                          0.0131589594087222 	(obj:0)
_var3011_                          0.0940193121594189 	(obj:0)
_var3012_                          0.0164985399050378 	(obj:0)
_var3015_                          0.0758921718004775 	(obj:0)
_var3021_                          0.0212933335174713 	(obj:0)
_var3023_                          0.0192859273580447 	(obj:0)
_var3025_                         0.00790198915182478 	(obj:0)
